WARNING: for repeatability, setting FPU to use double precision
============================[ Problem Statistics ]=============================
|                                                                             |
|  Number of variables:       5861110                                         |
|  Number of clauses:        23325682                                         |
|  Parse time:                   5.48 s                                       |
|                                                                             |
c ============================[ Search Statistics ]==============================
c | Conflicts |          ORIGINAL         |          LEARNT          | Progress |
c |           |    Vars  Clauses Literals |    Limit  Clauses Lit/Cl |          |
c ===============================================================================
c Switched to VSIDS.
c Switched to LRB.
c Switched to VSIDS.
c Switched to LRB.
c Switched to VSIDS.
c Switched to LRB.
c Switched to VSIDS.
c Switched to LRB.
c Switched to VSIDS.
c Switched to LRB.
c Switched to VSIDS.
c Switched to LRB.
c Switched to VSIDS.
c Switched to LRB.
c Switched to VSIDS.
c Switched to LRB.
c Switched to VSIDS.
c Switched to LRB.
c Switched to VSIDS.
c Switched to LRB.
c Switched to VSIDS.
c Switched to LRB.
c Switched to VSIDS.
c Switched to LRB.
c Switched to VSIDS.
c Switched to LRB.
c Switched to VSIDS.
c Switched to LRB.
c ===============================================================================
restarts                  : 388
conflicts                 : 49319          (14 /sec)
decisions                 : 7889722        (0.00 % random) (2203 /sec)
propagations              : 7765490973     (2168014 /sec)
conflict literals         : 39667482       (22.79 % deleted)

conflicts w/ DIP found    : 44568          (90.37 % of conflicts)
conflicts w/ dangerous DIP: 0              (0.00 % of conflicts)
conflicts w/ DIP-learning : 6924           (14.04 % of conflicts)
decisions on ext vars     : 2970           (0.04 % of decisions)
total ext vars            : 94          
tried delete ext vars     : 69          
deleted ext vars          : 69          
max ext vars              : 53          

Memory used               : 3891.00 MB
CPU time                  : 3581.85 s
DIP computation time      : 1.58101 s (0.04 % of total time)
ER_sel time               : 0.187623 s
ER_add time               : 0.001498 s
ER_delC time              : 0 s
ER_delV time              : 0.151967 s
ER_sub time               : 0.237124 s
ER_stat time              : 0 s

INDETERMINATE
